Version identifier: 22.1.1.0 | 2022-11-28 | 9160aff4d
CPXPARAM_ClockType                               1
CPXPARAM_Read_DataCheck                          1
CPXPARAM_Threads                                 1
CPXPARAM_TimeLimit                               7200
CPXPARAM_MIP_Tolerances_AbsMIPGap                0
CPXPARAM_MIP_Tolerances_MIPGap                   0
CPXPARAM_MIP_Tolerances_Integrality              0
Tried aggregator 6 times.
MIP Presolve eliminated 15786 rows and 3593 columns.
MIP Presolve modified 2585 coefficients.
Aggregator did 2986 substitutions.
Reduced MIP has 258009 rows, 114771 columns, and 840548 nonzeros.
Reduced MIP has 114771 binaries, 0 generals, 0 SOSs, and 0 indicators.
Presolve time = 2.74 sec. (1562.66 ticks)
Probing fixed 54 vars, tightened 0 bounds.
Probing time = 5.42 sec. (1141.90 ticks)
Tried aggregator 2 times.
Detecting symmetries...
MIP Presolve eliminated 1055 rows and 554 columns.
MIP Presolve modified 56 coefficients.
Aggregator did 18 substitutions.
Reduced MIP has 256936 rows, 114199 columns, and 838169 nonzeros.
Reduced MIP has 114199 binaries, 0 generals, 0 SOSs, and 0 indicators.
Presolve time = 2.77 sec. (1568.20 ticks)
Probing time = 0.11 sec. (28.58 ticks)
Clique table members: 487676.
MIP emphasis: balance optimality and feasibility.
MIP search method: dynamic search.
Parallel mode: none, using 1 thread.
Root relaxation solution time = 1642.60 sec. (275750.89 ticks)

        Nodes                                         Cuts/
   Node  Left     Objective  IInf  Best Integer    Best Bound    ItCnt     Gap

      0     0    46488.0000 37708                  46488.0000   211125         

Clique cuts applied:  1679
Implied bound cuts applied:  157
Zero-half cuts applied:  8155
Gomory fractional cuts applied:  9

Root node processing (before b&c):
  Real time             = 7200.28 sec. (2103257.81 ticks)
Sequential b&c:
  Real time             =    0.00 sec. (0.00 ticks)
                          ------------
Total (root+branch&cut) = 7200.28 sec. (2103257.81 ticks)
Solution is infeasible.

---------------------
@@@ MIP_time_limit_infeasible
Traceback (most recent call last):
  File "/scratch/scherif/DiverseSAT-journal_sup/DiverseSAT_Supplementary_Experiments/experiment-1/cplex/jobs/../solvers/CPLEX-DW-SE.py", line 104, in <module>
    print(f">>> Benchmark {os.path.basename(cnf_file)} k {k} OPT {int(prob.solution.get_objective_value())}"
  File "/users/scherif/.local/lib/python3.9/site-packages/cplex/_internal/_subinterfaces.py", line 7211, in get_objective_value
    return CPX_PROC.getobjval(self._env._e, self._cplex._lp)
  File "/users/scherif/.local/lib/python3.9/site-packages/cplex/_internal/_procedural.py", line 2055, in getobjval
    check_status(env, status)
  File "/users/scherif/.local/lib/python3.9/site-packages/cplex/_internal/_procedural.py", line 249, in __call__
    raise CplexSolverError(error_string, env, status)
cplex.exceptions.errors.CplexSolverError: CPLEX Error  1217: No solution exists.
